(set-info :smt-lib-version 2.6)
(set-logic UF)
(set-info :source |Benchmarks from the paper: "Extending Sledgehammer with SMT Solvers" by Jasmin Blanchette, Sascha Bohme, and Lawrence C. Paulson, CADE 2011.  Translated to SMT2 by Andrew Reynolds and Morgan Deters.|)
(set-info :category "industrial")
(set-info :status unsat)
(declare-sort S1 0)
(declare-sort S2 0)
(declare-sort S3 0)
(declare-sort S4 0)
(declare-sort S5 0)
(declare-sort S6 0)
(declare-sort S7 0)
(declare-sort S8 0)
(declare-sort S9 0)
(declare-sort S10 0)
(declare-sort S11 0)
(declare-sort S12 0)
(declare-sort S13 0)
(declare-fun f1 () S1)
(declare-fun f2 () S1)
(declare-fun f3 (S2 S2) S1)
(declare-fun f4 () S2)
(declare-fun f5 (S3 S2) S2)
(declare-fun f6 (S4 S2) S3)
(declare-fun f7 () S4)
(declare-fun f8 () S2)
(declare-fun f9 () S2)
(declare-fun f10 () S4)
(declare-fun f11 (S5 S6) S2)
(declare-fun f12 () S5)
(declare-fun f13 (S7 S6) S6)
(declare-fun f14 () S7)
(declare-fun f15 () S7)
(declare-fun f16 () S6)
(declare-fun f17 () S3)
(declare-fun f18 (S6 S6) S1)
(declare-fun f19 (S8 S6) S7)
(declare-fun f20 () S8)
(declare-fun f21 () S6)
(declare-fun f22 () S8)
(declare-fun f23 (S10 S9) S9)
(declare-fun f24 (S11 S9) S10)
(declare-fun f25 () S11)
(declare-fun f26 () S9)
(declare-fun f27 () S7)
(declare-fun f28 (S12 S6) S9)
(declare-fun f29 () S12)
(declare-fun f30 (S9 S9) S1)
(declare-fun f31 () S4)
(declare-fun f32 (S13 S9) S2)
(declare-fun f33 () S13)
(declare-fun f34 () S4)
(declare-fun f35 () S3)
(declare-fun f36 () S7)
(declare-fun f37 () S8)
(assert (not (= f1 f2)))
(assert (not (= (f3 f4 (f5 (f6 f7 f8) f9)) f1)))
(assert (= (f3 f9 f8) f1))
(assert (= (f3 f8 (f5 (f6 f10 (f11 f12 (f13 f14 (f13 f15 f16)))) f9)) f1))
(assert (= (f3 f9 f8) f1))
(assert (= (f3 f4 f8) f1))
(assert (= (f3 f8 (f5 (f6 f10 (f11 f12 (f13 f14 (f13 f15 f16)))) f9)) f1))
(assert (=> (= (f3 f4 f8) f1) (=> (= (f3 f8 f9) f1) (not (= (f5 f17 f8) f4)))))
(assert (not (= (f3 f9 f4) f1)))
(assert (= (f3 f4 f9) f1))
(assert (forall ((?v0 S6) (?v1 S6)) (= (= (f18 ?v0 ?v1) f1) (= (f18 (f13 (f19 f20 ?v0) ?v1) f21) f1))))
(assert (forall ((?v0 S2) (?v1 S2)) (= (= (f3 ?v0 ?v1) f1) (= (f3 (f5 (f6 f7 ?v0) ?v1) f4) f1))))
(assert (not (= f9 f4)))
(assert (forall ((?v0 S6) (?v1 S6) (?v2 S6) (?v3 S6)) (=> (= (f13 (f19 f20 ?v0) ?v1) (f13 (f19 f20 ?v2) ?v3)) (= (= (f18 ?v0 ?v1) f1) (= (f18 ?v2 ?v3) f1)))))
(assert (forall ((?v0 S2) (?v1 S2) (?v2 S2) (?v3 S2)) (=> (= (f5 (f6 f7 ?v0) ?v1) (f5 (f6 f7 ?v2) ?v3)) (= (= (f3 ?v0 ?v1) f1) (= (f3 ?v2 ?v3) f1)))))
(assert (forall ((?v0 S6)) (= (f13 (f19 f20 ?v0) f21) ?v0)))
(assert (forall ((?v0 S2)) (= (f5 (f6 f7 ?v0) f4) ?v0)))
(assert (forall ((?v0 S6)) (= (f13 (f19 f20 ?v0) ?v0) f21)))
(assert (forall ((?v0 S2)) (= (f5 (f6 f7 ?v0) ?v0) f4)))
(assert (forall ((?v0 S6) (?v1 S6)) (= (= ?v0 ?v1) (= (f13 (f19 f20 ?v0) ?v1) f21))))
(assert (forall ((?v0 S2) (?v1 S2)) (= (= ?v0 ?v1) (= (f5 (f6 f7 ?v0) ?v1) f4))))
(assert (forall ((?v0 S6) (?v1 S6)) (= (= (f13 (f19 f20 ?v0) ?v1) f21) (= ?v0 ?v1))))
(assert (forall ((?v0 S2) (?v1 S2)) (= (= (f5 (f6 f7 ?v0) ?v1) f4) (= ?v0 ?v1))))
(assert (forall ((?v0 S2)) (= (not (= (f3 f4 (f5 (f6 f10 ?v0) ?v0)) f1)) (= ?v0 f4))))
(assert (forall ((?v0 S2) (?v1 S2) (?v2 S2)) (=> (= (f3 f4 ?v0) f1) (= (= (f3 (f5 (f6 f10 ?v1) ?v0) (f5 (f6 f10 ?v2) ?v0)) f1) (= (f3 ?v1 ?v2) f1)))))
(assert (forall ((?v0 S2) (?v1 S2)) (= (f5 (f6 f10 ?v0) ?v1) (f5 (f6 f10 ?v1) ?v0))))
(assert (forall ((?v0 S6) (?v1 S6) (?v2 S6)) (let ((?v_0 (f19 f22 ?v0))) (= (f13 (f19 f22 (f13 ?v_0 ?v1)) ?v2) (f13 ?v_0 (f13 (f19 f22 ?v1) ?v2))))))
(assert (forall ((?v0 S9) (?v1 S9) (?v2 S9)) (let ((?v_0 (f24 f25 ?v0))) (= (f23 (f24 f25 (f23 ?v_0 ?v1)) ?v2) (f23 ?v_0 (f23 (f24 f25 ?v1) ?v2))))))
(assert (forall ((?v0 S2) (?v1 S2) (?v2 S2)) (let ((?v_0 (f6 f10 ?v0))) (= (f5 (f6 f10 (f5 ?v_0 ?v1)) ?v2) (f5 ?v_0 (f5 (f6 f10 ?v1) ?v2))))))
(assert (forall ((?v0 S2) (?v1 S2) (?v2 S2)) (let ((?v_0 (f6 f10 ?v0))) (= (f5 (f6 f10 (f5 ?v_0 ?v1)) ?v2) (f5 ?v_0 (f5 (f6 f10 ?v1) ?v2))))))
(assert (= (f5 f17 f4) f4))
(assert (= (f5 f17 (f5 (f6 f10 (f11 f12 (f13 f14 (f13 f15 f16)))) f9)) f4))
(assert (forall ((?v0 S2)) (=> (= (f3 f4 ?v0) f1) (=> (= (f3 ?v0 (f11 f12 (f13 f14 (f13 f15 f16)))) f1) (= (f3 f4 (f5 f17 ?v0)) f1)))))
(assert (= (f5 f17 f9) f4))
(assert (= (f3 f9 (f11 f12 (f13 f14 (f13 f14 (f13 f15 f16))))) f1))
(assert (forall ((?v0 S2) (?v1 S2) (?v2 S2)) (let ((?v_0 (f6 f10 ?v0))) (=> (not (= ?v0 f4)) (= (= (f5 ?v_0 ?v1) (f5 ?v_0 ?v2)) (= ?v1 ?v2))))))
(assert (forall ((?v0 S2) (?v1 S2) (?v2 S2)) (=> (not (= ?v0 f4)) (= (= (f5 (f6 f10 ?v1) ?v0) (f5 (f6 f10 ?v2) ?v0)) (= ?v1 ?v2)))))
(assert (forall ((?v0 S2)) (=> (= (f3 f4 ?v0) f1) (=> (= (f3 ?v0 f9) f1) (= (f3 f4 (f5 f17 ?v0)) f1)))))
(assert (forall ((?v0 S9)) (= (= f26 ?v0) (= ?v0 f26))))
(assert (forall ((?v0 S6)) (= (= f21 ?v0) (= ?v0 f21))))
(assert (forall ((?v0 S2)) (= (= f4 ?v0) (= ?v0 f4))))
(assert (forall ((?v0 S6) (?v1 S6) (?v2 S6) (?v3 S6)) (=> (= (f13 (f19 f20 ?v0) ?v1) (f13 (f19 f20 ?v2) ?v3)) (= (= ?v0 ?v1) (= ?v2 ?v3)))))
(assert (forall ((?v0 S2) (?v1 S2) (?v2 S2) (?v3 S2)) (=> (= (f5 (f6 f7 ?v0) ?v1) (f5 (f6 f7 ?v2) ?v3)) (= (= ?v0 ?v1) (= ?v2 ?v3)))))
(assert (forall ((?v0 S2) (?v1 S2) (?v2 S2)) (let ((?v_0 (f6 f10 ?v0))) (=> (= (f3 f4 ?v0) f1) (=> (= (f3 ?v1 ?v2) f1) (= (f3 (f5 ?v_0 ?v1) (f5 ?v_0 ?v2)) f1))))))
(assert (forall ((?v0 S2) (?v1 S2)) (=> (= (f3 f4 ?v0) f1) (=> (= (f3 f4 ?v1) f1) (= (f3 f4 (f5 (f6 f10 ?v0) ?v1)) f1)))))
(assert (forall ((?v0 S6)) (= (f13 (f19 f22 ?v0) (f13 f27 (f13 f15 f16))) ?v0)))
(assert (forall ((?v0 S2)) (= (f5 (f6 f10 ?v0) (f11 f12 (f13 f15 f16))) ?v0)))
(assert (forall ((?v0 S6)) (= (f13 (f19 f22 (f13 f27 (f13 f15 f16))) ?v0) ?v0)))
(assert (forall ((?v0 S2)) (= (f5 (f6 f10 (f11 f12 (f13 f15 f16))) ?v0) ?v0)))
(assert (forall ((?v0 S6)) (= (= (f18 (f13 f27 ?v0) f21) f1) (= (f18 ?v0 f16) f1))))
(assert (forall ((?v0 S6)) (= (= (f3 (f11 f12 ?v0) f4) f1) (= (f18 ?v0 f16) f1))))
(assert (forall ((?v0 S6)) (= (= (f18 f21 (f13 f27 ?v0)) f1) (= (f18 f16 ?v0) f1))))
(assert (forall ((?v0 S6)) (= (= (f3 f4 (f11 f12 ?v0)) f1) (= (f18 f16 ?v0) f1))))
(assert (forall ((?v0 S6) (?v1 S6) (?v2 S6)) (let ((?v_0 (f13 f27 ?v2))) (= (f13 (f19 f22 (f13 (f19 f20 ?v0) ?v1)) ?v_0) (f13 (f19 f20 (f13 (f19 f22 ?v0) ?v_0)) (f13 (f19 f22 ?v1) ?v_0))))))
(assert (forall ((?v0 S2) (?v1 S2) (?v2 S6)) (let ((?v_0 (f11 f12 ?v2))) (= (f5 (f6 f10 (f5 (f6 f7 ?v0) ?v1)) ?v_0) (f5 (f6 f7 (f5 (f6 f10 ?v0) ?v_0)) (f5 (f6 f10 ?v1) ?v_0))))))
(assert (forall ((?v0 S6) (?v1 S6) (?v2 S6)) (let ((?v_0 (f19 f22 (f13 f27 ?v0)))) (= (f13 ?v_0 (f13 (f19 f20 ?v1) ?v2)) (f13 (f19 f20 (f13 ?v_0 ?v1)) (f13 ?v_0 ?v2))))))
(assert (forall ((?v0 S6) (?v1 S2) (?v2 S2)) (let ((?v_0 (f6 f10 (f11 f12 ?v0)))) (= (f5 ?v_0 (f5 (f6 f7 ?v1) ?v2)) (f5 (f6 f7 (f5 ?v_0 ?v1)) (f5 ?v_0 ?v2))))))
(assert (= (f28 f29 f16) f26))
(assert (= (f13 f27 f16) f21))
(assert (= (f11 f12 f16) f4))
(assert (= (f13 f27 f16) f21))
(assert (= (f11 f12 f16) f4))
(assert (= f21 (f13 f27 f16)))
(assert (= f4 (f11 f12 f16)))
(assert (forall ((?v0 S6) (?v1 S6) (?v2 S6)) (let ((?v_0 (f19 f22 ?v2))) (=> (= (f18 ?v0 ?v1) f1) (=> (= (f18 ?v2 f21) f1) (= (f18 (f13 ?v_0 ?v1) (f13 ?v_0 ?v0)) f1))))))
(assert (forall ((?v0 S2) (?v1 S2) (?v2 S2)) (let ((?v_0 (f6 f10 ?v2))) (=> (= (f3 ?v0 ?v1) f1) (=> (= (f3 ?v2 f4) f1) (= (f3 (f5 ?v_0 ?v1) (f5 ?v_0 ?v0)) f1))))))
(assert (forall ((?v0 S6) (?v1 S6)) (= (= (f18 ?v0 ?v1) f1) (= (f18 (f13 (f19 f20 ?v0) ?v1) f21) f1))))
(assert (forall ((?v0 S6) (?v1 S6)) (or (= (f18 ?v0 ?v1) f1) (or (= ?v0 ?v1) (= (f18 ?v1 ?v0) f1)))))
(assert (forall ((?v0 S6) (?v1 S6)) (= (= (f18 (f13 f27 ?v0) (f13 f27 ?v1)) f1) (= (f18 ?v0 ?v1) f1))))
(assert (forall ((?v0 S6) (?v1 S6)) (= (f23 (f24 f25 (f28 f29 ?v0)) (f28 f29 ?v1)) (ite (= (f18 ?v0 f16) f1) f26 (f28 f29 (f13 (f19 f22 ?v0) ?v1))))))
(assert (forall ((?v0 S6) (?v1 S6) (?v2 S9)) (= (f23 (f24 f25 (f28 f29 ?v0)) (f23 (f24 f25 (f28 f29 ?v1)) ?v2)) (ite (= (f18 ?v0 f16) f1) f26 (f23 (f24 f25 (f28 f29 (f13 (f19 f22 ?v0) ?v1))) ?v2)))))
(assert (forall ((?v0 S6) (?v1 S6) (?v2 S6)) (let ((?v_0 (f19 f22 ?v2))) (=> (= (f18 ?v0 ?v1) f1) (=> (= (f18 f21 ?v2) f1) (= (f18 (f13 ?v_0 ?v0) (f13 ?v_0 ?v1)) f1))))))
(assert (= f21 (f13 f27 f16)))
(assert (forall ((?v0 S6) (?v1 S6)) (= (= (f30 (f28 f29 ?v0) (f28 f29 ?v1)) f1) (ite (= (f18 ?v0 ?v1) f1) (= (f18 f16 ?v1) f1) false))))
(assert (forall ((?v0 S6)) (= (= (f30 f26 (f28 f29 ?v0)) f1) (= (f18 f16 ?v0) f1))))
(assert (= (f28 f29 f16) f26))
(assert (= f26 (f28 f29 f16)))
(assert (forall ((?v0 S6)) (= (f13 (f19 f22 f16) ?v0) f16)))
(assert (forall ((?v0 S6) (?v1 S6)) (= (f13 (f19 f22 (f13 f14 ?v0)) ?v1) (f13 f14 (f13 (f19 f22 ?v0) ?v1)))))
(assert (= (f30 f26 (f28 f29 (f13 f14 (f13 f15 f16)))) f1))
(assert (forall ((?v0 S6) (?v1 S6)) (=> (not (= ?v0 ?v1)) (=> (=> (= (f18 ?v0 ?v1) f1) false) (=> (=> (= (f18 ?v1 ?v0) f1) false) false)))))
(assert (forall ((?v0 S2) (?v1 S2)) (=> (not (= ?v0 ?v1)) (=> (=> (= (f3 ?v0 ?v1) f1) false) (=> (=> (= (f3 ?v1 ?v0) f1) false) false)))))
(assert (forall ((?v0 S6) (?v1 S6)) (= (= (f13 f27 ?v0) (f13 f27 ?v1)) (= ?v0 ?v1))))
(assert (forall ((?v0 S6) (?v1 S6)) (= (= (f11 f12 ?v0) (f11 f12 ?v1)) (= ?v0 ?v1))))
(assert (forall ((?v0 S6) (?v1 S9)) (let ((?v_0 (f28 f29 ?v0))) (= (= ?v_0 ?v1) (= ?v1 ?v_0)))))
(assert (forall ((?v0 S6) (?v1 S6)) (let ((?v_0 (f13 f27 ?v0))) (= (= ?v_0 ?v1) (= ?v1 ?v_0)))))
(assert (forall ((?v0 S6) (?v1 S2)) (let ((?v_0 (f11 f12 ?v0))) (= (= ?v_0 ?v1) (= ?v1 ?v_0)))))
(assert (forall ((?v0 S6) (?v1 S6)) (= (= (f18 (f13 f15 ?v0) (f13 f15 ?v1)) f1) (= (f18 ?v0 ?v1) f1))))
(assert (forall ((?v0 S6) (?v1 S6)) (= (= (f18 (f13 f15 ?v0) (f13 f15 ?v1)) f1) (= (f18 ?v0 ?v1) f1))))
(assert (forall ((?v0 S6) (?v1 S6)) (= (= (f13 f15 ?v0) (f13 f15 ?v1)) (= ?v0 ?v1))))
(assert (forall ((?v0 S6)) (= (= (f18 (f13 f15 ?v0) f21) f1) (= (f18 ?v0 f21) f1))))
(assert (forall ((?v0 S6)) (= (f13 (f19 f20 ?v0) f16) ?v0)))
(assert (= (= (f18 f16 f21) f1) false))
(assert (= (= (f18 f16 f16) f1) false))
(assert (= (= f16 f16) true))
(assert (= f16 f21))
(assert (forall ((?v0 S6) (?v1 S6)) (= (= (f18 (f13 f14 ?v0) (f13 f14 ?v1)) f1) (= (f18 ?v0 ?v1) f1))))
(assert (forall ((?v0 S6) (?v1 S6)) (= (= (f18 (f13 f14 ?v0) (f13 f14 ?v1)) f1) (= (f18 ?v0 ?v1) f1))))
(assert (forall ((?v0 S6) (?v1 S6)) (= (= (f13 f14 ?v0) (f13 f14 ?v1)) (= ?v0 ?v1))))
(assert (forall ((?v0 S6) (?v1 S6)) (= (f13 (f19 f20 (f13 f14 ?v0)) (f13 f14 ?v1)) (f13 f14 (f13 (f19 f20 ?v0) ?v1)))))
(assert (forall ((?v0 S6)) (= (= (f18 (f13 f14 ?v0) f21) f1) (= (f18 ?v0 f21) f1))))
(assert (forall ((?v0 S9)) (= (f23 (f24 f25 f26) ?v0) f26)))
(assert (forall ((?v0 S6)) (= (f13 (f19 f22 f21) ?v0) f21)))
(assert (forall ((?v0 S2)) (= (f5 (f6 f10 f4) ?v0) f4)))
(assert (forall ((?v0 S9)) (= (f23 (f24 f25 ?v0) f26) f26)))
(assert (forall ((?v0 S6)) (= (f13 (f19 f22 ?v0) f21) f21)))
(assert (forall ((?v0 S2)) (= (f5 (f6 f10 ?v0) f4) f4)))
(assert (forall ((?v0 S6) (?v1 S6)) (= (= (f13 (f19 f22 ?v0) ?v1) f21) (or (= ?v0 f21) (= ?v1 f21)))))
(assert (forall ((?v0 S2) (?v1 S2)) (= (= (f5 (f6 f10 ?v0) ?v1) f4) (or (= ?v0 f4) (= ?v1 f4)))))
(assert (forall ((?v0 S9) (?v1 S9)) (=> (not (= ?v0 f26)) (=> (not (= ?v1 f26)) (not (= (f23 (f24 f25 ?v0) ?v1) f26))))))
(assert (forall ((?v0 S6) (?v1 S6)) (=> (not (= ?v0 f21)) (=> (not (= ?v1 f21)) (not (= (f13 (f19 f22 ?v0) ?v1) f21))))))
(assert (forall ((?v0 S2) (?v1 S2)) (=> (not (= ?v0 f4)) (=> (not (= ?v1 f4)) (not (= (f5 (f6 f10 ?v0) ?v1) f4))))))
(assert (forall ((?v0 S9) (?v1 S9)) (=> (= (f23 (f24 f25 ?v0) ?v1) f26) (or (= ?v0 f26) (= ?v1 f26)))))
(assert (forall ((?v0 S6) (?v1 S6)) (=> (= (f13 (f19 f22 ?v0) ?v1) f21) (or (= ?v0 f21) (= ?v1 f21)))))
(assert (forall ((?v0 S2) (?v1 S2)) (=> (= (f5 (f6 f10 ?v0) ?v1) f4) (or (= ?v0 f4) (= ?v1 f4)))))
(assert (forall ((?v0 S6) (?v1 S6)) (= (= (f18 (f13 f27 ?v0) (f13 f27 ?v1)) f1) (= (f18 ?v0 ?v1) f1))))
(assert (forall ((?v0 S6) (?v1 S6)) (= (= (f3 (f11 f12 ?v0) (f11 f12 ?v1)) f1) (= (f18 ?v0 ?v1) f1))))
(assert (forall ((?v0 S6) (?v1 S6) (?v2 S6)) (= (f13 (f19 f22 (f13 f27 ?v0)) (f13 (f19 f22 (f13 f27 ?v1)) ?v2)) (f13 (f19 f22 (f13 f27 (f13 (f19 f22 ?v0) ?v1))) ?v2))))
(assert (forall ((?v0 S6) (?v1 S6) (?v2 S2)) (= (f5 (f6 f10 (f11 f12 ?v0)) (f5 (f6 f10 (f11 f12 ?v1)) ?v2)) (f5 (f6 f10 (f11 f12 (f13 (f19 f22 ?v0) ?v1))) ?v2))))
(assert (forall ((?v0 S6) (?v1 S6)) (= (f13 (f19 f22 (f13 f27 ?v0)) (f13 f27 ?v1)) (f13 f27 (f13 (f19 f22 ?v0) ?v1)))))
(assert (forall ((?v0 S6) (?v1 S6)) (= (f5 (f6 f10 (f11 f12 ?v0)) (f11 f12 ?v1)) (f11 f12 (f13 (f19 f22 ?v0) ?v1)))))
(assert (forall ((?v0 S6) (?v1 S6)) (= (f13 f27 (f13 (f19 f22 ?v0) ?v1)) (f13 (f19 f22 (f13 f27 ?v0)) (f13 f27 ?v1)))))
(assert (forall ((?v0 S6) (?v1 S6)) (= (f11 f12 (f13 (f19 f22 ?v0) ?v1)) (f5 (f6 f10 (f11 f12 ?v0)) (f11 f12 ?v1)))))
(assert (forall ((?v0 S6) (?v1 S6)) (= (f13 f27 (f13 (f19 f20 ?v0) ?v1)) (f13 (f19 f20 (f13 f27 ?v0)) (f13 f27 ?v1)))))
(assert (forall ((?v0 S6) (?v1 S6)) (= (f11 f12 (f13 (f19 f20 ?v0) ?v1)) (f5 (f6 f7 (f11 f12 ?v0)) (f11 f12 ?v1)))))
(assert (forall ((?v0 S6)) (= (= (f18 (f13 f15 ?v0) f16) f1) (= (f18 ?v0 f16) f1))))
(assert (forall ((?v0 S6)) (= (= (f13 f15 ?v0) f16) false)))
(assert (forall ((?v0 S6)) (= (= f16 (f13 f15 ?v0)) false)))
(assert (forall ((?v0 S6) (?v1 S6)) (= (= (f18 (f13 f15 ?v0) (f13 f14 ?v1)) f1) (= (f18 ?v0 ?v1) f1))))
(assert (forall ((?v0 S6) (?v1 S6)) (= (= (f18 (f13 f15 ?v0) (f13 f14 ?v1)) f1) (= (f18 ?v0 ?v1) f1))))
(assert (forall ((?v0 S6) (?v1 S6)) (= (f13 (f19 f20 (f13 f15 ?v0)) (f13 f15 ?v1)) (f13 f14 (f13 (f19 f20 ?v0) ?v1)))))
(assert (forall ((?v0 S6) (?v1 S6)) (= (f13 (f19 f20 (f13 f15 ?v0)) (f13 f14 ?v1)) (f13 f15 (f13 (f19 f20 ?v0) ?v1)))))
(assert (forall ((?v0 S6) (?v1 S6)) (= (= (f13 f15 ?v0) (f13 f14 ?v1)) false)))
(assert (forall ((?v0 S6) (?v1 S6)) (= (= (f13 f14 ?v0) (f13 f15 ?v1)) false)))
(assert (forall ((?v0 S6)) (= (= (f18 (f13 f14 ?v0) f16) f1) (= (f18 ?v0 f16) f1))))
(assert (forall ((?v0 S6)) (= (= (f13 f14 ?v0) f16) (= ?v0 f16))))
(assert (forall ((?v0 S6)) (= (= (f18 f16 (f13 f14 ?v0)) f1) (= (f18 f16 ?v0) f1))))
(assert (forall ((?v0 S6)) (= (= f16 (f13 f14 ?v0)) (= f16 ?v0))))
(assert (forall ((?v0 S6)) (let ((?v_0 (f19 f20 f16))) (= (f13 ?v_0 (f13 f14 ?v0)) (f13 f14 (f13 ?v_0 ?v0))))))
(assert (= (f13 f14 f16) f16))
(assert (forall ((?v0 S6)) (not (= (f18 (f13 (f19 f22 ?v0) ?v0) f21) f1))))
(assert (forall ((?v0 S2)) (not (= (f3 (f5 (f6 f10 ?v0) ?v0) f4) f1))))
(assert (forall ((?v0 S6) (?v1 S6) (?v2 S6)) (= (= (f18 (f13 (f19 f22 ?v0) ?v1) (f13 (f19 f22 ?v2) ?v1)) f1) (or (and (= (f18 f21 ?v1) f1) (= (f18 ?v0 ?v2) f1)) (and (= (f18 ?v1 f21) f1) (= (f18 ?v2 ?v0) f1))))))
(assert (forall ((?v0 S2) (?v1 S2) (?v2 S2)) (= (= (f3 (f5 (f6 f10 ?v0) ?v1) (f5 (f6 f10 ?v2) ?v1)) f1) (or (and (= (f3 f4 ?v1) f1) (= (f3 ?v0 ?v2) f1)) (and (= (f3 ?v1 f4) f1) (= (f3 ?v2 ?v0) f1))))))
(assert (forall ((?v0 S6) (?v1 S6) (?v2 S6)) (let ((?v_0 (f19 f22 ?v0))) (= (= (f18 (f13 ?v_0 ?v1) (f13 ?v_0 ?v2)) f1) (or (and (= (f18 f21 ?v0) f1) (= (f18 ?v1 ?v2) f1)) (and (= (f18 ?v0 f21) f1) (= (f18 ?v2 ?v1) f1)))))))
(assert (forall ((?v0 S2) (?v1 S2) (?v2 S2)) (let ((?v_0 (f6 f10 ?v0))) (= (= (f3 (f5 ?v_0 ?v1) (f5 ?v_0 ?v2)) f1) (or (and (= (f3 f4 ?v0) f1) (= (f3 ?v1 ?v2) f1)) (and (= (f3 ?v0 f4) f1) (= (f3 ?v2 ?v1) f1)))))))
(assert (forall ((?v0 S6) (?v1 S6) (?v2 S6)) (let ((?v_0 (f19 f22 ?v0))) (=> (= (f18 f21 ?v0) f1) (= (= (f18 (f13 ?v_0 ?v1) (f13 ?v_0 ?v2)) f1) (= (f18 ?v1 ?v2) f1))))))
(assert (forall ((?v0 S2) (?v1 S2) (?v2 S2)) (let ((?v_0 (f6 f10 ?v0))) (=> (= (f3 f4 ?v0) f1) (= (= (f3 (f5 ?v_0 ?v1) (f5 ?v_0 ?v2)) f1) (= (f3 ?v1 ?v2) f1))))))
(assert (forall ((?v0 S9) (?v1 S9)) (=> (= (f30 f26 ?v0) f1) (=> (= (f30 f26 ?v1) f1) (= (f30 f26 (f23 (f24 f25 ?v0) ?v1)) f1)))))
(assert (forall ((?v0 S6) (?v1 S6)) (=> (= (f18 f21 ?v0) f1) (=> (= (f18 f21 ?v1) f1) (= (f18 f21 (f13 (f19 f22 ?v0) ?v1)) f1)))))
(assert (forall ((?v0 S2) (?v1 S2)) (=> (= (f3 f4 ?v0) f1) (=> (= (f3 f4 ?v1) f1) (= (f3 f4 (f5 (f6 f10 ?v0) ?v1)) f1)))))
(assert (forall ((?v0 S9) (?v1 S9)) (=> (= (f30 f26 ?v0) f1) (=> (= (f30 ?v1 f26) f1) (= (f30 (f23 (f24 f25 ?v0) ?v1) f26) f1)))))
(assert (forall ((?v0 S6) (?v1 S6)) (=> (= (f18 f21 ?v0) f1) (=> (= (f18 ?v1 f21) f1) (= (f18 (f13 (f19 f22 ?v0) ?v1) f21) f1)))))
(assert (forall ((?v0 S2) (?v1 S2)) (=> (= (f3 f4 ?v0) f1) (=> (= (f3 ?v1 f4) f1) (= (f3 (f5 (f6 f10 ?v0) ?v1) f4) f1)))))
(assert (forall ((?v0 S9) (?v1 S9)) (=> (= (f30 f26 ?v0) f1) (=> (= (f30 ?v1 f26) f1) (= (f30 (f23 (f24 f25 ?v1) ?v0) f26) f1)))))
(assert (forall ((?v0 S6) (?v1 S6)) (=> (= (f18 f21 ?v0) f1) (=> (= (f18 ?v1 f21) f1) (= (f18 (f13 (f19 f22 ?v1) ?v0) f21) f1)))))
(assert (forall ((?v0 S2) (?v1 S2)) (=> (= (f3 f4 ?v0) f1) (=> (= (f3 ?v1 f4) f1) (= (f3 (f5 (f6 f10 ?v1) ?v0) f4) f1)))))
(assert (forall ((?v0 S9) (?v1 S9)) (=> (= (f30 f26 (f23 (f24 f25 ?v0) ?v1)) f1) (=> (= (f30 f26 ?v0) f1) (= (f30 f26 ?v1) f1)))))
(assert (forall ((?v0 S6) (?v1 S6)) (=> (= (f18 f21 (f13 (f19 f22 ?v0) ?v1)) f1) (=> (= (f18 f21 ?v0) f1) (= (f18 f21 ?v1) f1)))))
(assert (forall ((?v0 S2) (?v1 S2)) (=> (= (f3 f4 (f5 (f6 f10 ?v0) ?v1)) f1) (=> (= (f3 f4 ?v0) f1) (= (f3 f4 ?v1) f1)))))
(assert (forall ((?v0 S9) (?v1 S9)) (=> (= (f30 f26 (f23 (f24 f25 ?v0) ?v1)) f1) (=> (= (f30 f26 ?v1) f1) (= (f30 f26 ?v0) f1)))))
(assert (forall ((?v0 S6) (?v1 S6)) (=> (= (f18 f21 (f13 (f19 f22 ?v0) ?v1)) f1) (=> (= (f18 f21 ?v1) f1) (= (f18 f21 ?v0) f1)))))
(assert (forall ((?v0 S2) (?v1 S2)) (=> (= (f3 f4 (f5 (f6 f10 ?v0) ?v1)) f1) (=> (= (f3 f4 ?v1) f1) (= (f3 f4 ?v0) f1)))))
(assert (forall ((?v0 S6) (?v1 S6) (?v2 S6)) (let ((?v_0 (f19 f22 ?v0))) (=> (= (f18 ?v0 f21) f1) (= (= (f18 (f13 ?v_0 ?v1) (f13 ?v_0 ?v2)) f1) (= (f18 ?v2 ?v1) f1))))))
(assert (forall ((?v0 S2) (?v1 S2) (?v2 S2)) (let ((?v_0 (f6 f10 ?v0))) (=> (= (f3 ?v0 f4) f1) (= (= (f3 (f5 ?v_0 ?v1) (f5 ?v_0 ?v2)) f1) (= (f3 ?v2 ?v1) f1))))))
(assert (forall ((?v0 S9) (?v1 S9)) (=> (= (f30 ?v0 f26) f1) (=> (= (f30 f26 ?v1) f1) (= (f30 (f23 (f24 f25 ?v0) ?v1) f26) f1)))))
(assert (forall ((?v0 S6) (?v1 S6)) (=> (= (f18 ?v0 f21) f1) (=> (= (f18 f21 ?v1) f1) (= (f18 (f13 (f19 f22 ?v0) ?v1) f21) f1)))))
(assert (forall ((?v0 S2) (?v1 S2)) (=> (= (f3 ?v0 f4) f1) (=> (= (f3 f4 ?v1) f1) (= (f3 (f5 (f6 f10 ?v0) ?v1) f4) f1)))))
(assert (forall ((?v0 S6) (?v1 S6)) (=> (= (f18 ?v0 f21) f1) (=> (= (f18 ?v1 f21) f1) (= (f18 f21 (f13 (f19 f22 ?v0) ?v1)) f1)))))
(assert (forall ((?v0 S2) (?v1 S2)) (=> (= (f3 ?v0 f4) f1) (=> (= (f3 ?v1 f4) f1) (= (f3 f4 (f5 (f6 f10 ?v0) ?v1)) f1)))))
(assert (forall ((?v0 S9) (?v1 S9) (?v2 S9)) (=> (= (f30 ?v0 ?v1) f1) (=> (= (f30 f26 ?v2) f1) (= (f30 (f23 (f24 f25 ?v0) ?v2) (f23 (f24 f25 ?v1) ?v2)) f1)))))
(assert (forall ((?v0 S6) (?v1 S6) (?v2 S6)) (=> (= (f18 ?v0 ?v1) f1) (=> (= (f18 f21 ?v2) f1) (= (f18 (f13 (f19 f22 ?v0) ?v2) (f13 (f19 f22 ?v1) ?v2)) f1)))))
(assert (forall ((?v0 S2) (?v1 S2) (?v2 S2)) (=> (= (f3 ?v0 ?v1) f1) (=> (= (f3 f4 ?v2) f1) (= (f3 (f5 (f6 f10 ?v0) ?v2) (f5 (f6 f10 ?v1) ?v2)) f1)))))
(assert (forall ((?v0 S9) (?v1 S9) (?v2 S9)) (let ((?v_0 (f24 f25 ?v2))) (=> (= (f30 ?v0 ?v1) f1) (=> (= (f30 f26 ?v2) f1) (= (f30 (f23 ?v_0 ?v0) (f23 ?v_0 ?v1)) f1))))))
(assert (forall ((?v0 S6) (?v1 S6) (?v2 S6)) (let ((?v_0 (f19 f22 ?v2))) (=> (= (f18 ?v0 ?v1) f1) (=> (= (f18 f21 ?v2) f1) (= (f18 (f13 ?v_0 ?v0) (f13 ?v_0 ?v1)) f1))))))
(assert (forall ((?v0 S2) (?v1 S2) (?v2 S2)) (let ((?v_0 (f6 f10 ?v2))) (=> (= (f3 ?v0 ?v1) f1) (=> (= (f3 f4 ?v2) f1) (= (f3 (f5 ?v_0 ?v0) (f5 ?v_0 ?v1)) f1))))))
(assert (forall ((?v0 S9) (?v1 S9) (?v2 S9)) (let ((?v_0 (f24 f25 ?v2))) (=> (= (f30 ?v0 ?v1) f1) (=> (= (f30 f26 ?v2) f1) (= (f30 (f23 ?v_0 ?v0) (f23 ?v_0 ?v1)) f1))))))
(assert (forall ((?v0 S6) (?v1 S6) (?v2 S6)) (let ((?v_0 (f19 f22 ?v2))) (=> (= (f18 ?v0 ?v1) f1) (=> (= (f18 f21 ?v2) f1) (= (f18 (f13 ?v_0 ?v0) (f13 ?v_0 ?v1)) f1))))))
(assert (forall ((?v0 S2) (?v1 S2) (?v2 S2)) (let ((?v_0 (f6 f10 ?v2))) (=> (= (f3 ?v0 ?v1) f1) (=> (= (f3 f4 ?v2) f1) (= (f3 (f5 ?v_0 ?v0) (f5 ?v_0 ?v1)) f1))))))
(assert (forall ((?v0 S6) (?v1 S6) (?v2 S6)) (=> (= (f18 ?v0 ?v1) f1) (=> (= (f18 ?v2 f21) f1) (= (f18 (f13 (f19 f22 ?v1) ?v2) (f13 (f19 f22 ?v0) ?v2)) f1)))))
(assert (forall ((?v0 S2) (?v1 S2) (?v2 S2)) (=> (= (f3 ?v0 ?v1) f1) (=> (= (f3 ?v2 f4) f1) (= (f3 (f5 (f6 f10 ?v1) ?v2) (f5 (f6 f10 ?v0) ?v2)) f1)))))
(assert (forall ((?v0 S2) (?v1 S2)) (=> (= (f3 f4 ?v0) f1) (=> (= (f3 f4 ?v1) f1) (exists ((?v2 S2)) (and (= (f3 f4 ?v2) f1) (and (= (f3 ?v2 ?v0) f1) (= (f3 ?v2 ?v1) f1))))))))
(assert (forall ((?v0 S2)) (=> (= (f3 f4 ?v0) f1) (=> (= (f3 ?v0 (f5 (f6 f31 f9) (f11 f12 (f13 f14 (f13 f15 f16))))) f1) (= (f3 f4 (f5 f17 ?v0)) f1)))))
(assert (forall ((?v0 S9)) (= (f5 f17 (f5 (f6 f10 (f5 (f6 f10 (f11 f12 (f13 f14 (f13 f15 f16)))) (f32 f33 ?v0))) f9)) f4)))
(assert (forall ((?v0 S2)) (= (f5 f17 (f5 (f6 f34 ?v0) (f5 (f6 f10 (f11 f12 (f13 f14 (f13 f15 f16)))) f9))) (f5 f17 ?v0))))
(assert (= (f3 f4 (f5 (f6 f31 f9) (f11 f12 (f13 f14 (f13 f15 f16))))) f1))
(assert (= (f3 (f5 f35 (f5 (f6 f10 (f11 f12 (f13 f14 (f13 f15 f16)))) f9)) f9) f1))
(assert (forall ((?v0 S2) (?v1 S2) (?v2 S2)) (let ((?v_0 (f6 f10 ?v0))) (= (f5 ?v_0 (f5 (f6 f7 ?v1) ?v2)) (f5 (f6 f7 (f5 ?v_0 ?v1)) (f5 ?v_0 ?v2))))))
(assert (forall ((?v0 S2) (?v1 S2) (?v2 S2)) (let ((?v_0 (f6 f10 ?v0))) (= (f5 ?v_0 (f5 (f6 f7 ?v1) ?v2)) (f5 (f6 f7 (f5 ?v_0 ?v1)) (f5 ?v_0 ?v2))))))
(assert (forall ((?v0 S6)) (= (f13 f27 ?v0) ?v0)))
(assert (forall ((?v0 S6)) (= (f13 f36 (f13 f27 ?v0)) (f13 f27 (f13 f36 ?v0)))))
(assert (forall ((?v0 S6)) (= (f5 f35 (f11 f12 ?v0)) (f11 f12 (f13 f36 ?v0)))))
(assert (forall ((?v0 S6)) (= (f13 f27 (f13 f36 ?v0)) (f13 f36 (f13 f27 ?v0)))))
(assert (forall ((?v0 S6)) (= (f11 f12 (f13 f36 ?v0)) (f5 f35 (f11 f12 ?v0)))))
(assert (forall ((?v0 S6) (?v1 S6)) (= (f13 f27 (f13 (f19 f37 ?v0) ?v1)) (f13 (f19 f37 (f13 f27 ?v0)) (f13 f27 ?v1)))))
(assert (forall ((?v0 S6) (?v1 S6)) (= (f11 f12 (f13 (f19 f37 ?v0) ?v1)) (f5 (f6 f34 (f11 f12 ?v0)) (f11 f12 ?v1)))))
(assert (forall ((?v0 S6) (?v1 S6)) (= (f13 (f19 f22 ?v0) ?v1) (f13 (f19 f22 ?v1) ?v0))))
(check-sat)
(exit)
